p cnf 132 777
-1 -8 0
-1 -9 0
-1 -10 0
-1 -11 0
-1 -12 0
-2 -7 0
-2 -9 0
-2 -10 0
-2 -11 0
-2 -12 0
-3 -7 0
-3 -8 0
-3 -10 0
-3 -11 0
-3 -12 0
-4 -7 0
-4 -8 0
-4 -9 0
-4 -11 0
-4 -12 0
-5 -7 0
-5 -8 0
-5 -9 0
-5 -10 0
-5 -12 0
-6 -7 0
-6 -8 0
-6 -9 0
-6 -10 0
-6 -11 0
-1 -20 0
-1 -21 0
-1 -22 0
-1 -23 0
-1 -24 0
-2 -19 0
-2 -21 0
-2 -22 0
-2 -23 0
-2 -24 0
-3 -19 0
-3 -20 0
-3 -22 0
-3 -23 0
-3 -24 0
-4 -19 0
-4 -20 0
-4 -21 0
-4 -23 0
-4 -24 0
-5 -19 0
-5 -20 0
-5 -21 0
-5 -22 0
-5 -24 0
-6 -19 0
-6 -20 0
-6 -21 0
-6 -22 0
-6 -23 0
-1 -26 0
-1 -27 0
-1 -28 0
-1 -29 0
-1 -30 0
-2 -25 0
-2 -27 0
-2 -28 0
-2 -29 0
-2 -30 0
-3 -25 0
-3 -26 0
-3 -28 0
-3 -29 0
-3 -30 0
-4 -25 0
-4 -26 0
-4 -27 0
-4 -29 0
-4 -30 0
-5 -25 0
-5 -26 0
-5 -27 0
-5 -28 0
-5 -30 0
-6 -25 0
-6 -26 0
-6 -27 0
-6 -28 0
-6 -29 0
-1 -32 0
-1 -33 0
-1 -34 0
-1 -35 0
-1 -36 0
-2 -31 0
-2 -33 0
-2 -34 0
-2 -35 0
-2 -36 0
-3 -31 0
-3 -32 0
-3 -34 0
-3 -35 0
-3 -36 0
-4 -31 0
-4 -32 0
-4 -33 0
-4 -35 0
-4 -36 0
-5 -31 0
-5 -32 0
-5 -33 0
-5 -34 0
-5 -36 0
-6 -31 0
-6 -32 0
-6 -33 0
-6 -34 0
-6 -35 0
-1 -44 0
-1 -45 0
-1 -46 0
-1 -47 0
-1 -48 0
-2 -43 0
-2 -45 0
-2 -46 0
-2 -47 0
-2 -48 0
-3 -43 0
-3 -44 0
-3 -46 0
-3 -47 0
-3 -48 0
-4 -43 0
-4 -44 0
-4 -45 0
-4 -47 0
-4 -48 0
-5 -43 0
-5 -44 0
-5 -45 0
-5 -46 0
-5 -48 0
-6 -43 0
-6 -44 0
-6 -45 0
-6 -46 0
-6 -47 0
-1 -50 0
-1 -51 0
-1 -52 0
-1 -53 0
-1 -54 0
-2 -49 0
-2 -51 0
-2 -52 0
-2 -53 0
-2 -54 0
-3 -49 0
-3 -50 0
-3 -52 0
-3 -53 0
-3 -54 0
-4 -49 0
-4 -50 0
-4 -51 0
-4 -53 0
-4 -54 0
-5 -49 0
-5 -50 0
-5 -51 0
-5 -52 0
-5 -54 0
-6 -49 0
-6 -50 0
-6 -51 0
-6 -52 0
-6 -53 0
-7 -14 0
-7 -15 0
-7 -16 0
-7 -17 0
-7 -18 0
-8 -13 0
-8 -15 0
-8 -16 0
-8 -17 0
-8 -18 0
-9 -13 0
-9 -14 0
-9 -16 0
-9 -17 0
-9 -18 0
-10 -13 0
-10 -14 0
-10 -15 0
-10 -17 0
-10 -18 0
-11 -13 0
-11 -14 0
-11 -15 0
-11 -16 0
-11 -18 0
-12 -13 0
-12 -14 0
-12 -15 0
-12 -16 0
-12 -17 0
-7 -32 0
-7 -33 0
-7 -34 0
-7 -35 0
-7 -36 0
-8 -31 0
-8 -33 0
-8 -34 0
-8 -35 0
-8 -36 0
-9 -31 0
-9 -32 0
-9 -34 0
-9 -35 0
-9 -36 0
-10 -31 0
-10 -32 0
-10 -33 0
-10 -35 0
-10 -36 0
-11 -31 0
-11 -32 0
-11 -33 0
-11 -34 0
-11 -36 0
-12 -31 0
-12 -32 0
-12 -33 0
-12 -34 0
-12 -35 0
-7 -38 0
-7 -39 0
-7 -40 0
-7 -41 0
-7 -42 0
-8 -37 0
-8 -39 0
-8 -40 0
-8 -41 0
-8 -42 0
-9 -37 0
-9 -38 0
-9 -40 0
-9 -41 0
-9 -42 0
-10 -37 0
-10 -38 0
-10 -39 0
-10 -41 0
-10 -42 0
-11 -37 0
-11 -38 0
-11 -39 0
-11 -40 0
-11 -42 0
-12 -37 0
-12 -38 0
-12 -39 0
-12 -40 0
-12 -41 0
-13 -32 0
-13 -33 0
-13 -34 0
-13 -35 0
-13 -36 0
-14 -31 0
-14 -33 0
-14 -34 0
-14 -35 0
-14 -36 0
-15 -31 0
-15 -32 0
-15 -34 0
-15 -35 0
-15 -36 0
-16 -31 0
-16 -32 0
-16 -33 0
-16 -35 0
-16 -36 0
-17 -31 0
-17 -32 0
-17 -33 0
-17 -34 0
-17 -36 0
-18 -31 0
-18 -32 0
-18 -33 0
-18 -34 0
-18 -35 0
-13 -38 0
-13 -39 0
-13 -40 0
-13 -41 0
-13 -42 0
-14 -37 0
-14 -39 0
-14 -40 0
-14 -41 0
-14 -42 0
-15 -37 0
-15 -38 0
-15 -40 0
-15 -41 0
-15 -42 0
-16 -37 0
-16 -38 0
-16 -39 0
-16 -41 0
-16 -42 0
-17 -37 0
-17 -38 0
-17 -39 0
-17 -40 0
-17 -42 0
-18 -37 0
-18 -38 0
-18 -39 0
-18 -40 0
-18 -41 0
-25 -32 0
-25 -33 0
-25 -34 0
-25 -35 0
-25 -36 0
-26 -31 0
-26 -33 0
-26 -34 0
-26 -35 0
-26 -36 0
-27 -31 0
-27 -32 0
-27 -34 0
-27 -35 0
-27 -36 0
-28 -31 0
-28 -32 0
-28 -33 0
-28 -35 0
-28 -36 0
-29 -31 0
-29 -32 0
-29 -33 0
-29 -34 0
-29 -36 0
-30 -31 0
-30 -32 0
-30 -33 0
-30 -34 0
-30 -35 0
-37 -44 0
-37 -45 0
-37 -46 0
-37 -47 0
-37 -48 0
-38 -43 0
-38 -45 0
-38 -46 0
-38 -47 0
-38 -48 0
-39 -43 0
-39 -44 0
-39 -46 0
-39 -47 0
-39 -48 0
-40 -43 0
-40 -44 0
-40 -45 0
-40 -47 0
-40 -48 0
-41 -43 0
-41 -44 0
-41 -45 0
-41 -46 0
-41 -48 0
-42 -43 0
-42 -44 0
-42 -45 0
-42 -46 0
-42 -47 0
-37 -50 0
-37 -51 0
-37 -52 0
-37 -53 0
-37 -54 0
-38 -49 0
-38 -51 0
-38 -52 0
-38 -53 0
-38 -54 0
-39 -49 0
-39 -50 0
-39 -52 0
-39 -53 0
-39 -54 0
-40 -49 0
-40 -50 0
-40 -51 0
-40 -53 0
-40 -54 0
-41 -49 0
-41 -50 0
-41 -51 0
-41 -52 0
-41 -54 0
-42 -49 0
-42 -50 0
-42 -51 0
-42 -52 0
-42 -53 0
1 7 13 19 25 31 37 43 49 0 
2 8 14 20 26 32 38 44 50 0 
3 9 15 21 27 33 39 45 51 0 
4 10 16 22 28 34 40 46 52 0 
5 11 17 23 29 35 41 47 53 0 
6 12 18 24 30 36 42 48 54 0 
-2 -1 0
-3 -1 0
-4 -1 0
-5 -1 0
-6 -1 0
-3 -2 0
-4 -2 0
-5 -2 0
-6 -2 0
-4 -3 0
-5 -3 0
-6 -3 0
-5 -4 0
-6 -4 0
-6 -5 0
-8 -7 0
-9 -7 0
-10 -7 0
-11 -7 0
-12 -7 0
-9 -8 0
-10 -8 0
-11 -8 0
-12 -8 0
-10 -9 0
-11 -9 0
-12 -9 0
-11 -10 0
-12 -10 0
-12 -11 0
-14 -13 0
-15 -13 0
-16 -13 0
-17 -13 0
-18 -13 0
-15 -14 0
-16 -14 0
-17 -14 0
-18 -14 0
-16 -15 0
-17 -15 0
-18 -15 0
-17 -16 0
-18 -16 0
-18 -17 0
-20 -19 0
-21 -19 0
-22 -19 0
-23 -19 0
-24 -19 0
-21 -20 0
-22 -20 0
-23 -20 0
-24 -20 0
-22 -21 0
-23 -21 0
-24 -21 0
-23 -22 0
-24 -22 0
-24 -23 0
-26 -25 0
-27 -25 0
-28 -25 0
-29 -25 0
-30 -25 0
-27 -26 0
-28 -26 0
-29 -26 0
-30 -26 0
-28 -27 0
-29 -27 0
-30 -27 0
-29 -28 0
-30 -28 0
-30 -29 0
-32 -31 0
-33 -31 0
-34 -31 0
-35 -31 0
-36 -31 0
-33 -32 0
-34 -32 0
-35 -32 0
-36 -32 0
-34 -33 0
-35 -33 0
-36 -33 0
-35 -34 0
-36 -34 0
-36 -35 0
-38 -37 0
-39 -37 0
-40 -37 0
-41 -37 0
-42 -37 0
-39 -38 0
-40 -38 0
-41 -38 0
-42 -38 0
-40 -39 0
-41 -39 0
-42 -39 0
-41 -40 0
-42 -40 0
-42 -41 0
-44 -43 0
-45 -43 0
-46 -43 0
-47 -43 0
-48 -43 0
-45 -44 0
-46 -44 0
-47 -44 0
-48 -44 0
-46 -45 0
-47 -45 0
-48 -45 0
-47 -46 0
-48 -46 0
-48 -47 0
-50 -49 0
-51 -49 0
-52 -49 0
-53 -49 0
-54 -49 0
-51 -50 0
-52 -50 0
-53 -50 0
-54 -50 0
-52 -51 0
-53 -51 0
-54 -51 0
-53 -52 0
-54 -52 0
-54 -53 0
-1 -7 0
-2 -8 0
-3 -9 0
-4 -10 0
-5 -11 0
-6 -12 0
-1 -13 0
-2 -14 0
-3 -15 0
-4 -16 0
-5 -17 0
-6 -18 0
-1 -19 0
-2 -20 0
-3 -21 0
-4 -22 0
-5 -23 0
-6 -24 0
-1 -25 0
-2 -26 0
-3 -27 0
-4 -28 0
-5 -29 0
-6 -30 0
-1 -31 0
-2 -32 0
-3 -33 0
-4 -34 0
-5 -35 0
-6 -36 0
-1 -37 0
-2 -38 0
-3 -39 0
-4 -40 0
-5 -41 0
-6 -42 0
-1 -43 0
-2 -44 0
-3 -45 0
-4 -46 0
-5 -47 0
-6 -48 0
-1 -49 0
-2 -50 0
-3 -51 0
-4 -52 0
-5 -53 0
-6 -54 0
-7 -13 0
-8 -14 0
-9 -15 0
-10 -16 0
-11 -17 0
-12 -18 0
-7 -19 0
-8 -20 0
-9 -21 0
-10 -22 0
-11 -23 0
-12 -24 0
-7 -25 0
-8 -26 0
-9 -27 0
-10 -28 0
-11 -29 0
-12 -30 0
-7 -31 0
-8 -32 0
-9 -33 0
-10 -34 0
-11 -35 0
-12 -36 0
-7 -37 0
-8 -38 0
-9 -39 0
-10 -40 0
-11 -41 0
-12 -42 0
-7 -43 0
-8 -44 0
-9 -45 0
-10 -46 0
-11 -47 0
-12 -48 0
-7 -49 0
-8 -50 0
-9 -51 0
-10 -52 0
-11 -53 0
-12 -54 0
-13 -19 0
-14 -20 0
-15 -21 0
-16 -22 0
-17 -23 0
-18 -24 0
-13 -25 0
-14 -26 0
-15 -27 0
-16 -28 0
-17 -29 0
-18 -30 0
-13 -31 0
-14 -32 0
-15 -33 0
-16 -34 0
-17 -35 0
-18 -36 0
-13 -37 0
-14 -38 0
-15 -39 0
-16 -40 0
-17 -41 0
-18 -42 0
-13 -43 0
-14 -44 0
-15 -45 0
-16 -46 0
-17 -47 0
-18 -48 0
-13 -49 0
-14 -50 0
-15 -51 0
-16 -52 0
-17 -53 0
-18 -54 0
-19 -25 0
-20 -26 0
-21 -27 0
-22 -28 0
-23 -29 0
-24 -30 0
-19 -31 0
-20 -32 0
-21 -33 0
-22 -34 0
-23 -35 0
-24 -36 0
-19 -37 0
-20 -38 0
-21 -39 0
-22 -40 0
-23 -41 0
-24 -42 0
-19 -43 0
-20 -44 0
-21 -45 0
-22 -46 0
-23 -47 0
-24 -48 0
-19 -49 0
-20 -50 0
-21 -51 0
-22 -52 0
-23 -53 0
-24 -54 0
-25 -31 0
-26 -32 0
-27 -33 0
-28 -34 0
-29 -35 0
-30 -36 0
-25 -37 0
-26 -38 0
-27 -39 0
-28 -40 0
-29 -41 0
-30 -42 0
-25 -43 0
-26 -44 0
-27 -45 0
-28 -46 0
-29 -47 0
-30 -48 0
-25 -49 0
-26 -50 0
-27 -51 0
-28 -52 0
-29 -53 0
-30 -54 0
-31 -37 0
-32 -38 0
-33 -39 0
-34 -40 0
-35 -41 0
-36 -42 0
-31 -43 0
-32 -44 0
-33 -45 0
-34 -46 0
-35 -47 0
-36 -48 0
-31 -49 0
-32 -50 0
-33 -51 0
-34 -52 0
-35 -53 0
-36 -54 0
-37 -43 0
-38 -44 0
-39 -45 0
-40 -46 0
-41 -47 0
-42 -48 0
-37 -49 0
-38 -50 0
-39 -51 0
-40 -52 0
-41 -53 0
-42 -54 0
-43 -49 0
-44 -50 0
-45 -51 0
-46 -52 0
-47 -53 0
-48 -54 0
